c colouring generated by benchmark framework
p edge 958 957
v 1 0
v 2 1
v 3 1
v 4 1
v 5 1
v 6 2
v 7 0
v 8 1
v 9 1
v 10 0
v 11 0
v 12 2
v 13 0
v 14 0
v 15 1
v 16 0
v 17 2
v 18 1
v 19 1
v 20 2
v 21 1
v 22 1
v 23 2
v 24 2
v 25 1
v 26 0
v 27 2
v 28 2
v 29 1
v 30 2
v 31 1
v 32 1
v 33 0
v 34 0
v 35 2
v 36 1
v 37 2
v 38 0
v 39 1
v 40 1
v 41 2
v 42 0
v 43 0
v 44 0
v 45 1
v 46 2
v 47 2
v 48 1
v 49 2
v 50 1
v 51 0
v 52 0
v 53 2
v 54 2
v 55 0
v 56 1
v 57 1
v 58 0
v 59 0
v 60 0
v 61 2
v 62 0
v 63 0
v 64 0
v 65 1
v 66 2
v 67 1
v 68 2
v 69 1
v 70 2
v 71 0
v 72 1
v 73 2
v 74 0
v 75 2
v 76 2
v 77 2
v 78 0
v 79 1
v 80 1
v 81 0
v 82 0
v 83 2
v 84 0
v 85 0
v 86 1
v 87 1
v 88 2
v 89 0
v 90 0
v 91 1
v 92 1
v 93 2
v 94 0
v 95 0
v 96 2
v 97 0
v 98 0
v 99 2
v 100 1
v 101 0
v 102 2
v 103 1
v 104 0
v 105 2
v 106 0
v 107 1
v 108 1
v 109 1
v 110 0
v 111 1
v 112 0
v 113 1
v 114 2
v 115 0
v 116 1
v 117 1
v 118 1
v 119 2
v 120 2
v 121 2
v 122 1
v 123 1
v 124 2
v 125 1
v 126 0
v 127 1
v 128 1
v 129 2
v 130 0
v 131 0
v 132 0
v 133 1
v 134 0
v 135 1
v 136 0
v 137 0
v 138 0
v 139 1
v 140 1
v 141 0
v 142 0
v 143 1
v 144 1
v 145 0
v 146 1
v 147 2
v 148 0
v 149 2
v 150 1
v 151 2
v 152 0
v 153 0
v 154 0
v 155 1
v 156 1
v 157 1
v 158 1
v 159 0
v 160 2
v 161 0
v 162 0
v 163 1
v 164 1
v 165 0
v 166 0
v 167 0
v 168 0
v 169 0
v 170 2
v 171 1
v 172 2
v 173 0
v 174 1
v 175 2
v 176 2
v 177 0
v 178 1
v 179 1
v 180 2
v 181 2
v 182 1
v 183 1
v 184 1
v 185 1
v 186 2
v 187 0
v 188 1
v 189 0
v 190 0
v 191 0
v 192 1
v 193 0
v 194 0
v 195 1
v 196 1
v 197 2
v 198 0
v 199 2
v 200 2
v 201 0
v 202 0
v 203 1
v 204 1
v 205 1
v 206 2
v 207 0
v 208 2
v 209 0
v 210 0
v 211 0
v 212 1
v 213 0
v 214 2
v 215 1
v 216 0
v 217 0
v 218 1
v 219 1
v 220 2
v 221 1
v 222 0
v 223 0
v 224 0
v 225 0
v 226 2
v 227 1
v 228 0
v 229 0
v 230 1
v 231 1
v 232 2
v 233 1
v 234 2
v 235 1
v 236 1
v 237 0
v 238 2
v 239 1
v 240 0
v 241 1
v 242 0
v 243 0
v 244 2
v 245 1
v 246 2
v 247 2
v 248 0
v 249 1
v 250 0
v 251 1
v 252 0
v 253 2
v 254 2
v 255 1
v 256 0
v 257 0
v 258 1
v 259 0
v 260 0
v 261 2
v 262 0
v 263 0
v 264 0
v 265 0
v 266 2
v 267 0
v 268 2
v 269 0
v 270 2
v 271 0
v 272 2
v 273 1
v 274 1
v 275 1
v 276 0
v 277 2
v 278 2
v 279 1
v 280 0
v 281 1
v 282 2
v 283 1
v 284 2
v 285 1
v 286 0
v 287 2
v 288 2
v 289 2
v 290 1
v 291 1
v 292 2
v 293 2
v 294 0
v 295 0
v 296 2
v 297 1
v 298 2
v 299 0
v 300 0
v 301 2
v 302 0
v 303 1
v 304 1
v 305 1
v 306 1
v 307 0
v 308 1
v 309 1
v 310 0
v 311 0
v 312 1
v 313 2
v 314 0
v 315 1
v 316 0
v 317 0
v 318 0
v 319 0
v 320 1
v 321 1
v 322 1
v 323 1
v 324 1
v 325 0
v 326 1
v 327 2
v 328 1
v 329 2
v 330 0
v 331 0
v 332 0
v 333 0
v 334 0
v 335 0
v 336 2
v 337 2
v 338 1
v 339 0
v 340 1
v 341 2
v 342 1
v 343 2
v 344 1
v 345 0
v 346 1
v 347 0
v 348 0
v 349 2
v 350 1
v 351 1
v 352 0
v 353 2
v 354 0
v 355 1
v 356 2
v 357 1
v 358 0
v 359 1
v 360 0
v 361 2
v 362 0
v 363 1
v 364 0
v 365 1
v 366 1
v 367 1
v 368 0
v 369 2
v 370 0
v 371 0
v 372 0
v 373 1
v 374 1
v 375 0
v 376 1
v 377 2
v 378 0
v 379 1
v 380 1
v 381 2
v 382 1
v 383 2
v 384 0
v 385 1
v 386 2
v 387 1
v 388 1
v 389 0
v 390 0
v 391 2
v 392 2
v 393 2
v 394 2
v 395 0
v 396 0
v 397 1
v 398 1
v 399 0
v 400 1
v 401 2
v 402 1
v 403 0
v 404 0
v 405 1
v 406 0
v 407 1
v 408 0
v 409 0
v 410 0
v 411 1
v 412 2
v 413 0
v 414 0
v 415 2
v 416 0
v 417 1
v 418 2
v 419 0
v 420 1
v 421 1
v 422 2
v 423 0
v 424 2
v 425 1
v 426 1
v 427 0
v 428 1
v 429 2
v 430 0
v 431 0
v 432 1
v 433 2
v 434 2
v 435 0
v 436 0
v 437 1
v 438 1
v 439 0
v 440 0
v 441 0
v 442 0
v 443 2
v 444 0
v 445 1
v 446 0
v 447 1
v 448 2
v 449 2
v 450 1
v 451 0
v 452 0
v 453 0
v 454 0
v 455 1
v 456 0
v 457 2
v 458 1
v 459 0
v 460 0
v 461 0
v 462 2
v 463 0
v 464 0
v 465 0
v 466 2
v 467 0
v 468 0
v 469 2
v 470 2
v 471 2
v 472 1
v 473 1
v 474 1
v 475 0
v 476 0
v 477 0
v 478 0
v 479 1
v 480 1
v 481 2
v 482 1
v 483 0
v 484 0
v 485 0
v 486 1
v 487 0
v 488 2
v 489 0
v 490 0
v 491 1
v 492 2
v 493 2
v 494 2
v 495 1
v 496 1
v 497 1
v 498 0
v 499 2
v 500 2
v 501 2
v 502 2
v 503 2
v 504 2
v 505 0
v 506 0
v 507 1
v 508 0
v 509 0
v 510 0
v 511 2
v 512 2
v 513 1
v 514 2
v 515 0
v 516 2
v 517 2
v 518 0
v 519 1
v 520 2
v 521 0
v 522 1
v 523 2
v 524 2
v 525 0
v 526 2
v 527 0
v 528 0
v 529 1
v 530 1
v 531 2
v 532 0
v 533 0
v 534 0
v 535 0
v 536 0
v 537 0
v 538 2
v 539 1
v 540 2
v 541 0
v 542 1
v 543 0
v 544 0
v 545 2
v 546 0
v 547 0
v 548 1
v 549 1
v 550 1
v 551 1
v 552 2
v 553 2
v 554 1
v 555 0
v 556 0
v 557 1
v 558 0
v 559 1
v 560 0
v 561 0
v 562 1
v 563 2
v 564 2
v 565 0
v 566 2
v 567 1
v 568 0
v 569 0
v 570 1
v 571 1
v 572 2
v 573 1
v 574 2
v 575 0
v 576 0
v 577 2
v 578 0
v 579 2
v 580 1
v 581 1
v 582 0
v 583 2
v 584 1
v 585 0
v 586 1
v 587 0
v 588 2
v 589 1
v 590 1
v 591 2
v 592 0
v 593 1
v 594 0
v 595 1
v 596 1
v 597 1
v 598 1
v 599 1
v 600 2
v 601 0
v 602 0
v 603 0
v 604 1
v 605 2
v 606 1
v 607 2
v 608 1
v 609 2
v 610 1
v 611 0
v 612 1
v 613 0
v 614 0
v 615 0
v 616 0
v 617 2
v 618 0
v 619 1
v 620 2
v 621 1
v 622 0
v 623 0
v 624 1
v 625 0
v 626 2
v 627 2
v 628 1
v 629 2
v 630 2
v 631 1
v 632 2
v 633 1
v 634 2
v 635 1
v 636 1
v 637 0
v 638 2
v 639 2
v 640 0
v 641 0
v 642 1
v 643 2
v 644 0
v 645 1
v 646 1
v 647 2
v 648 1
v 649 0
v 650 1
v 651 1
v 652 0
v 653 0
v 654 2
v 655 0
v 656 0
v 657 1
v 658 0
v 659 0
v 660 1
v 661 2
v 662 0
v 663 1
v 664 2
v 665 0
v 666 1
v 667 1
v 668 0
v 669 1
v 670 2
v 671 0
v 672 1
v 673 0
v 674 2
v 675 2
v 676 2
v 677 0
v 678 2
v 679 1
v 680 0
v 681 0
v 682 0
v 683 1
v 684 1
v 685 1
v 686 1
v 687 2
v 688 0
v 689 2
v 690 1
v 691 1
v 692 2
v 693 1
v 694 1
v 695 2
v 696 0
v 697 2
v 698 0
v 699 2
v 700 0
v 701 1
v 702 0
v 703 0
v 704 0
v 705 0
v 706 1
v 707 1
v 708 1
v 709 1
v 710 0
v 711 1
v 712 0
v 713 0
v 714 0
v 715 1
v 716 0
v 717 0
v 718 0
v 719 0
v 720 2
v 721 0
v 722 1
v 723 0
v 724 0
v 725 2
v 726 1
v 727 0
v 728 0
v 729 2
v 730 0
v 731 0
v 732 1
v 733 1
v 734 2
v 735 0
v 736 0
v 737 2
v 738 2
v 739 2
v 740 0
v 741 2
v 742 2
v 743 1
v 744 2
v 745 0
v 746 1
v 747 0
v 748 2
v 749 2
v 750 2
v 751 1
v 752 2
v 753 0
v 754 2
v 755 0
v 756 2
v 757 1
v 758 1
v 759 0
v 760 0
v 761 1
v 762 0
v 763 0
v 764 0
v 765 1
v 766 2
v 767 2
v 768 0
v 769 2
v 770 0
v 771 2
v 772 2
v 773 0
v 774 1
v 775 0
v 776 2
v 777 2
v 778 0
v 779 1
v 780 1
v 781 1
v 782 1
v 783 0
v 784 2
v 785 0
v 786 0
v 787 1
v 788 1
v 789 0
v 790 0
v 791 0
v 792 1
v 793 0
v 794 2
v 795 1
v 796 2
v 797 1
v 798 1
v 799 0
v 800 1
v 801 1
v 802 0
v 803 1
v 804 2
v 805 2
v 806 0
v 807 0
v 808 2
v 809 0
v 810 1
v 811 1
v 812 0
v 813 2
v 814 2
v 815 1
v 816 2
v 817 1
v 818 0
v 819 1
v 820 1
v 821 1
v 822 0
v 823 2
v 824 0
v 825 1
v 826 1
v 827 2
v 828 1
v 829 0
v 830 1
v 831 0
v 832 1
v 833 1
v 834 1
v 835 0
v 836 2
v 837 2
v 838 1
v 839 2
v 840 2
v 841 0
v 842 0
v 843 2
v 844 2
v 845 2
v 846 2
v 847 0
v 848 2
v 849 0
v 850 2
v 851 1
v 852 1
v 853 2
v 854 1
v 855 1
v 856 0
v 857 0
v 858 1
v 859 2
v 860 2
v 861 2
v 862 2
v 863 1
v 864 2
v 865 0
v 866 1
v 867 1
v 868 1
v 869 0
v 870 0
v 871 1
v 872 1
v 873 2
v 874 1
v 875 1
v 876 1
v 877 0
v 878 0
v 879 1
v 880 1
v 881 0
v 882 0
v 883 2
v 884 2
v 885 0
v 886 2
v 887 0
v 888 2
v 889 1
v 890 0
v 891 0
v 892 0
v 893 2
v 894 2
v 895 0
v 896 1
v 897 1
v 898 2
v 899 1
v 900 2
v 901 2
v 902 1
v 903 0
v 904 1
v 905 0
v 906 0
v 907 0
v 908 0
v 909 2
v 910 1
v 911 1
v 912 0
v 913 0
v 914 2
v 915 1
v 916 2
v 917 0
v 918 1
v 919 2
v 920 0
v 921 0
v 922 1
v 923 1
v 924 0
v 925 0
v 926 1
v 927 2
v 928 1
v 929 1
v 930 0
v 931 0
v 932 2
v 933 0
v 934 0
v 935 0
v 936 2
v 937 0
v 938 0
v 939 1
v 940 1
v 941 1
v 942 1
v 943 0
v 944 0
v 945 0
v 946 0
v 947 0
v 948 0
v 949 1
v 950 1
v 951 2
v 952 1
v 953 2
v 954 0
v 955 2
v 956 1
v 957 1
v 958 1
